# Solution for model school
# Objective value = 7.9570000114890026e+03
x[0,1] 0
x[0,2] 0
x[0,3] 0
x[0,4] 0
x[0,5] 0
x[0,6] 0
x[0,7] 0
x[0,8] 0
x[0,9] 0
x[0,10] 0
x[0,11] 0
x[0,12] 0
x[0,13] 0
x[0,14] 0
x[0,15] 0
x[0,16] 0
x[0,17] 0
x[0,18] 0
x[0,19] 1
x[0,20] 0
x[0,21] 0
x[0,22] 0
x[0,23] 0
x[0,24] 0
x[1,0] 0
x[1,2] 0
x[1,3] 0
x[1,4] 0
x[1,5] 0
x[1,6] 0
x[1,7] 0
x[1,8] 1
x[1,9] 0
x[1,10] 0
x[1,11] 0
x[1,12] 0
x[1,13] 0
x[1,14] 0
x[1,15] 0
x[1,16] 0
x[1,17] 0
x[1,18] 0
x[1,19] 0
x[1,20] 0
x[1,21] 0
x[1,22] 0
x[1,23] 0
x[1,24] 0
x[2,0] 0
x[2,1] 0
x[2,3] 0
x[2,4] 0
x[2,5] 0
x[2,6] 0
x[2,7] 0
x[2,8] 0
x[2,9] 0
x[2,10] 0
x[2,11] 0
x[2,12] 0
x[2,13] 0
x[2,14] 0
x[2,15] 0
x[2,16] 0
x[2,17] 0
x[2,18] 0
x[2,19] 0
x[2,20] 1
x[2,21] 0
x[2,22] 0
x[2,23] 0
x[2,24] 0
x[3,0] 0
x[3,1] 0
x[3,2] 0
x[3,4] 0
x[3,5] 0
x[3,6] 0
x[3,7] 0
x[3,8] 0
x[3,9] 0
x[3,10] 0
x[3,11] 0
x[3,12] 0
x[3,13] 0
x[3,14] 0
x[3,15] 0
x[3,16] 0
x[3,17] 0
x[3,18] 0
x[3,19] 0
x[3,20] 0
x[3,21] 0
x[3,22] 1
x[3,23] 0
x[3,24] 0
x[4,0] 0
x[4,1] 0
x[4,2] 0
x[4,3] 0
x[4,5] 0
x[4,6] 0
x[4,7] 0
x[4,8] 0
x[4,9] 0
x[4,10] 0
x[4,11] 0
x[4,12] 0
x[4,13] 0
x[4,14] 0
x[4,15] 1
x[4,16] 0
x[4,17] 0
x[4,18] 0
x[4,19] 0
x[4,20] 0
x[4,21] 0
x[4,22] 0
x[4,23] 0
x[4,24] 0
x[5,0] 0
x[5,1] 0
x[5,2] 0
x[5,3] 0
x[5,4] 0
x[5,6] 0
x[5,7] 0
x[5,8] 0
x[5,9] 0
x[5,10] 1
x[5,11] 0
x[5,12] 0
x[5,13] 0
x[5,14] 0
x[5,15] 0
x[5,16] 0
x[5,17] 0
x[5,18] 0
x[5,19] 0
x[5,20] 0
x[5,21] 0
x[5,22] 0
x[5,23] 0
x[5,24] 0
x[6,0] 0
x[6,1] 0
x[6,2] 0
x[6,3] 0
x[6,4] 0
x[6,5] 0
x[6,7] 0
x[6,8] 0
x[6,9] 0
x[6,10] 0
x[6,11] 0
x[6,12] 0
x[6,13] 0
x[6,14] 1
x[6,15] 0
x[6,16] 0
x[6,17] 0
x[6,18] 0
x[6,19] 0
x[6,20] 0
x[6,21] 0
x[6,22] 0
x[6,23] 0
x[6,24] 0
x[7,0] 0
x[7,1] 0
x[7,2] 0
x[7,3] 0
x[7,4] 0
x[7,5] 0
x[7,6] 1
x[7,8] 0
x[7,9] 0
x[7,10] 0
x[7,11] 0
x[7,12] 0
x[7,13] 0
x[7,14] 0
x[7,15] 0
x[7,16] 0
x[7,17] 0
x[7,18] 0
x[7,19] 0
x[7,20] 0
x[7,21] 0
x[7,22] 0
x[7,23] 0
x[7,24] 0
x[8,0] 0
x[8,1] 0
x[8,2] 0
x[8,3] 0
x[8,4] 0
x[8,5] 0
x[8,6] 0
x[8,7] 1
x[8,9] 0
x[8,10] 0
x[8,11] 0
x[8,12] 0
x[8,13] 0
x[8,14] 0
x[8,15] 0
x[8,16] 0
x[8,17] 0
x[8,18] 0
x[8,19] 0
x[8,20] 0
x[8,21] 0
x[8,22] 0
x[8,23] 0
x[8,24] 0
x[9,0] 0
x[9,1] 0
x[9,2] 0
x[9,3] 0
x[9,4] 0
x[9,5] 0
x[9,6] 0
x[9,7] 0
x[9,8] 0
x[9,10] 0
x[9,11] 0
x[9,12] 0
x[9,13] 0
x[9,14] 0
x[9,15] 0
x[9,16] 1
x[9,17] 0
x[9,18] 0
x[9,19] 0
x[9,20] 0
x[9,21] 0
x[9,22] 0
x[9,23] 0
x[9,24] 0
x[10,0] 0
x[10,1] 0
x[10,2] 0
x[10,3] 0
x[10,4] 0
x[10,5] 0
x[10,6] 0
x[10,7] 0
x[10,8] 0
x[10,9] 1
x[10,11] 0
x[10,12] 0
x[10,13] 0
x[10,14] 0
x[10,15] 0
x[10,16] 0
x[10,17] 0
x[10,18] 0
x[10,19] 0
x[10,20] 0
x[10,21] 0
x[10,22] 0
x[10,23] 0
x[10,24] 0
x[11,0] 0
x[11,1] 0
x[11,2] 1
x[11,3] 0
x[11,4] 0
x[11,5] 0
x[11,6] 0
x[11,7] 0
x[11,8] 0
x[11,9] 0
x[11,10] 0
x[11,12] 0
x[11,13] 0
x[11,14] 0
x[11,15] 0
x[11,16] 0
x[11,17] 0
x[11,18] 0
x[11,19] 0
x[11,20] 0
x[11,21] 0
x[11,22] 0
x[11,23] 0
x[11,24] 0
x[12,0] 0
x[12,1] 0
x[12,2] 0
x[12,3] 0
x[12,4] 0
x[12,5] 0
x[12,6] 0
x[12,7] 0
x[12,8] 0
x[12,9] 0
x[12,10] 0
x[12,11] 0
x[12,13] 0
x[12,14] 0
x[12,15] 0
x[12,16] 0
x[12,17] 1
x[12,18] 0
x[12,19] 0
x[12,20] 0
x[12,21] 0
x[12,22] 0
x[12,23] 0
x[12,24] 0
x[13,0] 0
x[13,1] 0
x[13,2] 0
x[13,3] 0
x[13,4] 0
x[13,5] 0
x[13,6] 0
x[13,7] 0
x[13,8] 0
x[13,9] 0
x[13,10] 0
x[13,11] 0
x[13,12] 0
x[13,14] 0
x[13,15] 0
x[13,16] 0
x[13,17] 0
x[13,18] 1
x[13,19] 0
x[13,20] 0
x[13,21] 0
x[13,22] 0
x[13,23] 0
x[13,24] 0
x[14,0] 0
x[14,1] 0
x[14,2] 0
x[14,3] 0
x[14,4] 0
x[14,5] 0
x[14,6] 0
x[14,7] 0
x[14,8] 0
x[14,9] 0
x[14,10] 0
x[14,11] 0
x[14,12] 0
x[14,13] 0
x[14,15] 0
x[14,16] 0
x[14,17] 0
x[14,18] 0
x[14,19] 0
x[14,20] 0
x[14,21] 1
x[14,22] 0
x[14,23] 0
x[14,24] 0
x[15,0] 0
x[15,1] 0
x[15,2] 0
x[15,3] 0
x[15,4] 0
x[15,5] 1
x[15,6] 0
x[15,7] 0
x[15,8] 0
x[15,9] 0
x[15,10] 0
x[15,11] 0
x[15,12] 0
x[15,13] 0
x[15,14] 0
x[15,16] 0
x[15,17] 0
x[15,18] 0
x[15,19] 0
x[15,20] 0
x[15,21] 0
x[15,22] 0
x[15,23] 0
x[15,24] 0
x[16,0] 0
x[16,1] 0
x[16,2] 0
x[16,3] 0
x[16,4] 0
x[16,5] 0
x[16,6] 0
x[16,7] 0
x[16,8] 0
x[16,9] 0
x[16,10] 0
x[16,11] 1
x[16,12] 0
x[16,13] 0
x[16,14] 0
x[16,15] 0
x[16,17] 0
x[16,18] 0
x[16,19] 0
x[16,20] 0
x[16,21] 0
x[16,22] 0
x[16,23] 0
x[16,24] 0
x[17,0] 0
x[17,1] 0
x[17,2] 0
x[17,3] 0
x[17,4] 0
x[17,5] 0
x[17,6] 0
x[17,7] 0
x[17,8] 0
x[17,9] 0
x[17,10] 0
x[17,11] 0
x[17,12] 0
x[17,13] 0
x[17,14] 0
x[17,15] 0
x[17,16] 0
x[17,18] 0
x[17,19] 0
x[17,20] 0
x[17,21] 0
x[17,22] 0
x[17,23] 1
x[17,24] 0
x[18,0] 0
x[18,1] 0
x[18,2] 0
x[18,3] 0
x[18,4] 1
x[18,5] 0
x[18,6] 0
x[18,7] 0
x[18,8] 0
x[18,9] 0
x[18,10] 0
x[18,11] 0
x[18,12] 0
x[18,13] 0
x[18,14] 0
x[18,15] 0
x[18,16] 0
x[18,17] 0
x[18,19] 0
x[18,20] 0
x[18,21] 0
x[18,22] 0
x[18,23] 0
x[18,24] 0
x[19,0] 0
x[19,1] 0
x[19,2] 0
x[19,3] 0
x[19,4] 0
x[19,5] 0
x[19,6] 0
x[19,7] 0
x[19,8] 0
x[19,9] 0
x[19,10] 0
x[19,11] 0
x[19,12] 0
x[19,13] 1
x[19,14] 0
x[19,15] 0
x[19,16] 0
x[19,17] 0
x[19,18] 0
x[19,20] 0
x[19,21] 0
x[19,22] 0
x[19,23] 0
x[19,24] 0
x[20,0] 0
x[20,1] 0
x[20,2] 0
x[20,3] 1
x[20,4] 0
x[20,5] 0
x[20,6] 0
x[20,7] 0
x[20,8] 0
x[20,9] 0
x[20,10] 0
x[20,11] 0
x[20,12] 0
x[20,13] 0
x[20,14] 0
x[20,15] 0
x[20,16] 0
x[20,17] 0
x[20,18] 0
x[20,19] 0
x[20,21] 0
x[20,22] 0
x[20,23] 0
x[20,24] 0
x[21,0] 0
x[21,1] 0
x[21,2] 0
x[21,3] 0
x[21,4] 0
x[21,5] 0
x[21,6] 0
x[21,7] 0
x[21,8] 0
x[21,9] 0
x[21,10] 0
x[21,11] 0
x[21,12] 1
x[21,13] 0
x[21,14] 0
x[21,15] 0
x[21,16] 0
x[21,17] 0
x[21,18] 0
x[21,19] 0
x[21,20] 0
x[21,22] 0
x[21,23] 0
x[21,24] 0
x[22,0] 0
x[22,1] 1
x[22,2] 0
x[22,3] 0
x[22,4] 0
x[22,5] 0
x[22,6] 0
x[22,7] 0
x[22,8] 0
x[22,9] 0
x[22,10] 0
x[22,11] 0
x[22,12] 0
x[22,13] 0
x[22,14] 0
x[22,15] 0
x[22,16] 0
x[22,17] 0
x[22,18] 0
x[22,19] 0
x[22,20] 0
x[22,21] 0
x[22,23] 0
x[22,24] 0
x[23,0] 0
x[23,1] 0
x[23,2] 0
x[23,3] 0
x[23,4] 0
x[23,5] 0
x[23,6] 0
x[23,7] 0
x[23,8] 0
x[23,9] 0
x[23,10] 0
x[23,11] 0
x[23,12] 0
x[23,13] 0
x[23,14] 0
x[23,15] 0
x[23,16] 0
x[23,17] 0
x[23,18] 0
x[23,19] 0
x[23,20] 0
x[23,21] 0
x[23,22] 0
x[23,24] 1
x[24,0] 0
x[24,1] 0
x[24,2] 0
x[24,3] 0
x[24,4] 0
x[24,5] 0
x[24,6] 0
x[24,7] 0
x[24,8] 0
x[24,9] 0
x[24,10] 0
x[24,11] 0
x[24,12] 0
x[24,13] 0
x[24,14] 0
x[24,15] 0
x[24,16] 0
x[24,17] 0
x[24,18] 0
x[24,19] 0
x[24,20] 0
x[24,21] 0
x[24,22] 0
x[24,23] 0
t[0] 0
t[1] 3.8000000054709534e+02
t[2] 3.3300000054709534e+02
t[3] 3.5500000054709534e+02
t[4] 2.3700000054709545e+02
t[5] 2.7300000054709534e+02
t[6] 4.2500000054709534e+02
t[7] 4.0800000054709534e+02
t[8] 3.9300000054709534e+02
t[9] 3.0100000054709534e+02
t[10] 2.8800000054709534e+02
t[11] 3.2100000054709534e+02
t[12] 4.6500000054709494e+02
t[13] 2.1300000054709551e+02
t[14] 4.3600000054709534e+02
t[15] 2.5700000054709534e+02
t[16] 3.1000000054709534e+02
t[17] 476
t[18] 2.2800000054709545e+02
t[19] 1.9800000054709551e+02
t[20] 3.4600000054709534e+02
t[21] 4.5000000054709534e+02
t[22] 3.6400000054709534e+02
t[23] 500
t[24] 0
r[0] 0
r[1] 1.3000000000000002e+01
r[2] 15
r[3] 17
r[4] 8
r[5] 9.9999999999999982e+00
r[6] 16
r[7] 1.5000000000000002e+01
r[8] 1.4000000000000002e+01
r[9] 12
r[10] 11
r[11] 14
r[12] 1.6000000000000540e+01
r[13] 6
r[14] 17
r[15] 9
r[16] 13
r[17] 17
r[18] 7
r[19] 5
r[20] 16
r[21] 1.5000000000000540e+01
r[22] 1.2000000000000002e+01
r[23] 16
r[24] 0
